NB_POSTES = 2;

NIVEAU_HIERARCHIQUE_P = [| 1,
	| 3|];
	
	
COMP_CLEES_P = [| 0, 0, 1, 0, 1, 1, 0, 0, 0, 0,
	| 0, 0, 1, 0, 1, 0, 0, 0, 1, 0,|];
	
AUTRES_COMP_P = [|0, 0, 0, 0, 0, 0, 0, 0, 0, 0,
	| 0, 0, 0, 0, 0, 0, 0, 0, 0, 0|];
	
NIVEAU_EDUCATION_P = [| 1,
	|3|];
	
TITRE_PROFESSIONNEL_P = [| 0,
	|3|];
	
NIVEAU_FR_P = [| 2,
	|3|];
	
NIVEAU_EN_P = [| 2,
	|4|];
	
AUTRES_LANGUES_P = [| 0, 0, 0, 0, 0, 0, 0, 0, 0, 0,
	| 0, 0, 0, 0, 0, 0, 0, 0, 0, 0|];